p cnf 152 447
11 16 0 
-11 -16 0 
-11 -123 110 0 
-11 -123 24 0 
-68 -124 113 0 
-68 -124 28 0 
-73 -125 116 0 
-73 -125 32 0 
-78 -126 119 0 
-78 -126 36 0 
-83 -127 122 0 
-83 -127 40 0 
-16 -128 110 0 
-16 -128 41 0 
-89 -129 113 0 
-89 -129 45 0 
-94 -130 116 0 
-94 -130 49 0 
-99 -131 119 0 
-99 -131 53 0 
-104 -132 122 0 
-104 -132 57 0 
-11 -9 -133 24 0 
-11 -9 -133 68 0 
-11 -9 -133 -68 0 
-68 -58 -134 28 0 
-68 -58 -134 73 0 
-68 -58 -134 -73 0 
-73 -59 -135 32 0 
-73 -59 -135 78 0 
-73 -59 -135 -78 0 
-78 -60 -136 36 0 
-78 -60 -136 83 0 
-78 -60 -136 -83 0 
-83 -61 -137 40 0 
-83 -61 -137 88 0 
-83 -61 -137 -88 0 
-11 -138 41 0 
-11 -138 89 0 
-11 -138 -68 0 
-68 -139 45 0 
-68 -139 94 0 
-68 -139 -73 0 
-73 -140 49 0 
-73 -140 99 0 
-73 -140 -78 0 
-78 -141 53 0 
-78 -141 104 0 
-78 -141 -83 0 
-83 -142 57 0 
-83 -142 109 0 
-83 -142 -88 0 
-16 -143 24 0 
-16 -143 68 0 
-16 -143 -89 0 
-89 -144 28 0 
-89 -144 73 0 
-89 -144 -94 0 
-94 -145 32 0 
-94 -145 78 0 
-94 -145 -99 0 
-99 -146 36 0 
-99 -146 83 0 
-99 -146 -104 0 
-104 -147 40 0 
-104 -147 88 0 
-104 -147 -109 0 
-16 -10 -148 41 0 
-16 -10 -148 89 0 
-16 -10 -148 -89 0 
-89 -63 -149 45 0 
-89 -63 -149 94 0 
-89 -63 -149 -94 0 
-94 -64 -150 49 0 
-94 -64 -150 99 0 
-94 -64 -150 -99 0 
-99 -65 -151 53 0 
-99 -65 -151 104 0 
-99 -65 -151 -104 0 
-104 -66 -152 57 0 
-104 -66 -152 109 0 
-104 -66 -152 -109 0 
-1 24 0 
-11 -123 2 0 
-2 11 0 
-2 123 0 
-11 -9 -133 3 0 
-3 11 0 
-3 9 0 
-3 133 0 
-16 -143 4 0 
-4 16 0 
-4 143 0 
2 3 4 1 -24 0 
-24 28 0 
-68 -124 25 0 
-25 68 0 
-25 124 0 
-68 -58 -134 26 0 
-26 68 0 
-26 58 0 
-26 134 0 
-89 -144 27 0 
-27 89 0 
-27 144 0 
25 26 27 24 -28 0 
-28 32 0 
-73 -125 29 0 
-29 73 0 
-29 125 0 
-73 -59 -135 30 0 
-30 73 0 
-30 59 0 
-30 135 0 
-94 -145 31 0 
-31 94 0 
-31 145 0 
29 30 31 28 -32 0 
-32 36 0 
-78 -126 33 0 
-33 78 0 
-33 126 0 
-78 -60 -136 34 0 
-34 78 0 
-34 60 0 
-34 136 0 
-99 -146 35 0 
-35 99 0 
-35 146 0 
33 34 35 32 -36 0 
-36 40 0 
-83 -127 37 0 
-37 83 0 
-37 127 0 
-83 -61 -137 38 0 
-38 83 0 
-38 61 0 
-38 137 0 
-104 -147 39 0 
-39 104 0 
-39 147 0 
37 38 39 36 -40 0 
-5 41 0 
-16 -128 6 0 
-6 16 0 
-6 128 0 
-11 -138 7 0 
-7 11 0 
-7 138 0 
-16 -10 -148 8 0 
-8 16 0 
-8 10 0 
-8 148 0 
6 7 8 5 -41 0 
-41 45 0 
-89 -129 42 0 
-42 89 0 
-42 129 0 
-68 -139 43 0 
-43 68 0 
-43 139 0 
-89 -63 -149 44 0 
-44 89 0 
-44 63 0 
-44 149 0 
42 43 44 41 -45 0 
-45 49 0 
-94 -130 46 0 
-46 94 0 
-46 130 0 
-73 -140 47 0 
-47 73 0 
-47 140 0 
-94 -64 -150 48 0 
-48 94 0 
-48 64 0 
-48 150 0 
46 47 48 45 -49 0 
-49 53 0 
-99 -131 50 0 
-50 99 0 
-50 131 0 
-78 -141 51 0 
-51 78 0 
-51 141 0 
-99 -65 -151 52 0 
-52 99 0 
-52 65 0 
-52 151 0 
50 51 52 49 -53 0 
-53 57 0 
-104 -132 54 0 
-54 104 0 
-54 132 0 
-83 -142 55 0 
-55 83 0 
-55 142 0 
-104 -66 -152 56 0 
-56 104 0 
-56 66 0 
-56 152 0 
54 55 56 53 -57 0 
-9 58 0 
9 -58 0 
-58 59 0 
58 -59 0 
-59 60 0 
59 -60 0 
-60 61 0 
60 -61 0 
-61 62 0 
61 -62 0 
-10 63 0 
10 -63 0 
-63 64 0 
63 -64 0 
-64 65 0 
64 -65 0 
-65 66 0 
65 -66 0 
-66 67 0 
66 -67 0 
-11 -9 -133 12 0 
-12 11 0 
-12 9 0 
-12 133 0 
-11 -138 13 0 
-13 11 0 
-13 138 0 
12 13 -11 68 0 
-11 -9 -133 14 0 
-14 11 0 
-14 9 0 
-14 133 0 
-16 -143 15 0 
-15 16 0 
-15 143 0 
14 15 11 -68 0 
-68 -58 -134 69 0 
-69 68 0 
-69 58 0 
-69 134 0 
-68 -139 70 0 
-70 68 0 
-70 139 0 
69 70 -68 73 0 
-68 -58 -134 71 0 
-71 68 0 
-71 58 0 
-71 134 0 
-89 -144 72 0 
-72 89 0 
-72 144 0 
71 72 68 -73 0 
-73 -59 -135 74 0 
-74 73 0 
-74 59 0 
-74 135 0 
-73 -140 75 0 
-75 73 0 
-75 140 0 
74 75 -73 78 0 
-73 -59 -135 76 0 
-76 73 0 
-76 59 0 
-76 135 0 
-94 -145 77 0 
-77 94 0 
-77 145 0 
76 77 73 -78 0 
-78 -60 -136 79 0 
-79 78 0 
-79 60 0 
-79 136 0 
-78 -141 80 0 
-80 78 0 
-80 141 0 
79 80 -78 83 0 
-78 -60 -136 81 0 
-81 78 0 
-81 60 0 
-81 136 0 
-99 -146 82 0 
-82 99 0 
-82 146 0 
81 82 78 -83 0 
-83 -61 -137 84 0 
-84 83 0 
-84 61 0 
-84 137 0 
-83 -142 85 0 
-85 83 0 
-85 142 0 
84 85 -83 88 0 
-83 -61 -137 86 0 
-86 83 0 
-86 61 0 
-86 137 0 
-104 -147 87 0 
-87 104 0 
-87 147 0 
86 87 83 -88 0 
-16 -143 17 0 
-17 16 0 
-17 143 0 
-16 -10 -148 18 0 
-18 16 0 
-18 10 0 
-18 148 0 
17 18 -16 89 0 
-11 -138 19 0 
-19 11 0 
-19 138 0 
-16 -10 -148 20 0 
-20 16 0 
-20 10 0 
-20 148 0 
19 20 16 -89 0 
-89 -144 90 0 
-90 89 0 
-90 144 0 
-89 -63 -149 91 0 
-91 89 0 
-91 63 0 
-91 149 0 
90 91 -89 94 0 
-68 -139 92 0 
-92 68 0 
-92 139 0 
-89 -63 -149 93 0 
-93 89 0 
-93 63 0 
-93 149 0 
92 93 89 -94 0 
-94 -145 95 0 
-95 94 0 
-95 145 0 
-94 -64 -150 96 0 
-96 94 0 
-96 64 0 
-96 150 0 
95 96 -94 99 0 
-73 -140 97 0 
-97 73 0 
-97 140 0 
-94 -64 -150 98 0 
-98 94 0 
-98 64 0 
-98 150 0 
97 98 94 -99 0 
-99 -146 100 0 
-100 99 0 
-100 146 0 
-99 -65 -151 101 0 
-101 99 0 
-101 65 0 
-101 151 0 
100 101 -99 104 0 
-78 -141 102 0 
-102 78 0 
-102 141 0 
-99 -65 -151 103 0 
-103 99 0 
-103 65 0 
-103 151 0 
102 103 99 -104 0 
-104 -147 105 0 
-105 104 0 
-105 147 0 
-104 -66 -152 106 0 
-106 104 0 
-106 66 0 
-106 152 0 
105 106 -104 109 0 
-83 -142 107 0 
-107 83 0 
-107 142 0 
-104 -66 -152 108 0 
-108 104 0 
-108 66 0 
-108 152 0 
107 108 104 -109 0 
-21 110 0 
-11 -123 22 0 
-22 11 0 
-22 123 0 
-16 -128 23 0 
-23 16 0 
-23 128 0 
22 23 21 -110 0 
-110 113 0 
-68 -124 111 0 
-111 68 0 
-111 124 0 
-89 -129 112 0 
-112 89 0 
-112 129 0 
111 112 110 -113 0 
-113 116 0 
-73 -125 114 0 
-114 73 0 
-114 125 0 
-94 -130 115 0 
-115 94 0 
-115 130 0 
114 115 113 -116 0 
-116 119 0 
-78 -126 117 0 
-117 78 0 
-117 126 0 
-99 -131 118 0 
-118 99 0 
-118 131 0 
117 118 116 -119 0 
-119 122 0 
-83 -127 120 0 
-120 83 0 
-120 127 0 
-104 -132 121 0 
-121 104 0 
-121 132 0 
120 121 119 -122 0 
-133 -138 0 
-133 -143 0 
-134 -139 0 
-134 -144 0 
-135 -140 0 
-135 -145 0 
-136 -141 0 
-136 -146 0 
-137 -142 0 
-137 -147 0 
-138 -143 0 
-138 -148 0 
-139 -144 0 
-139 -149 0 
-140 -145 0 
-140 -150 0 
-141 -146 0 
-141 -151 0 
-142 -147 0 
-142 -152 0 
-143 -148 0 
-144 -149 0 
-145 -150 0 
-146 -151 0 
-147 -152 0 
